r = [
0,8,3,12,11,13,15,12,8,11,7,0
];
p = [
0,7,10,13,21,11,22,22,3,25,13,0
];
e = [
0,1,7,6,5,1,18,14,19,15,7,0
];
d = [
0,149,119,158,167,128,170,126,119,163,103,181
];
d_bar = [
0,153,124,165,178,134,181,137,121,176,110,181
];
w = [
0,0.25,1.4,0.857142857,0.454545455,0.166666667,1.636363636,1.272727273,9.5,1.153846154,1,0
];
